WARNING: for repeatability, setting FPU to use double precision
============================[ Problem Statistics ]=============================
|                                                                             |
|  Number of variables:       7886458                                         |
|  Number of clauses:        47378648                                         |
|  Parse time:                  13.01 s                                       |
|                                                                             |
c ============================[ Search Statistics ]==============================
c | Conflicts |          ORIGINAL         |          LEARNT          | Progress |
c |           |    Vars  Clauses Literals |    Limit  Clauses Lit/Cl |          |
c ===============================================================================
We had 875243 decisions of which only 0 were on extended
We had 672394492 decisions of which only 0 were on extended
c Switched to VSIDS.
c Switched to LRB.
c Switched to VSIDS.
c Switched to LRB.
c Switched to VSIDS.
We had 1771117881 decisions of which only 0 were on extended
c Switched to LRB.
c Switched to VSIDS.
c Switched to LRB.
c Switched to VSIDS.
We had 3940476632 decisions of which only 0 were on extended
c Switched to LRB.
c Switched to VSIDS.
c Switched to LRB.
c Switched to VSIDS.
c Switched to LRB.
c Switched to VSIDS.
We had 8035894929 decisions of which only 0 were on extended
c Switched to LRB.
c Switched to VSIDS.
We had 8196753092 decisions of which only 0 were on extended
We had 8198945881 decisions of which only 0 were on extended
c Switched to LRB.
We had 8309505173 decisions of which only 0 were on extended
We had 8364084986 decisions of which only 0 were on extended
We had 8368649063 decisions of which only 0 were on extended
We had 8368708805 decisions of which only 0 were on extended
We had 8368832050 decisions of which only 0 were on extended
We had 8369047359 decisions of which only 0 were on extended
We had 8370484548 decisions of which only 0 were on extended
We had 8370544996 decisions of which only 0 were on extended
We had 8384919356 decisions of which only 0 were on extended
c Switched to VSIDS.
We had 8485103071 decisions of which only 4.47844e-07 were on extended
c Switched to LRB.
c Switched to VSIDS.
We had 8720001586 decisions of which only 4.47248e-07 were on extended
We had 8724580227 decisions of which only 4.47013e-07 were on extended
Window full
Continue
We had 8725134974 decisions of which only 4.46984e-07 were on extended
We had 8747328498 decisions of which only 4.4585e-07 were on extended
c Switched to LRB.
We had 8800699888 decisions of which only 4.9996e-07 were on extended
We had 8800763409 decisions of which only 4.99957e-07 were on extended
We had 8801701369 decisions of which only 5.11265e-07 were on extended
We had 8801751776 decisions of which only 5.11262e-07 were on extended
We had 8834957506 decisions of which only 9.05494e-07 were on extended
We had 8897499407 decisions of which only 1.59595e-06 were on extended
We had 8910509329 decisions of which only 1.59362e-06 were on extended
We had 8910591173 decisions of which only 1.59361e-06 were on extended
Window full
Continue
We had 8914224906 decisions of which only 1.59296e-06 were on extended
We had 8921567662 decisions of which only 1.59165e-06 were on extended
We had 8921592337 decisions of which only 1.59164e-06 were on extended
We had 8923381529 decisions of which only 1.59132e-06 were on extended
We had 8923450878 decisions of which only 1.59131e-06 were on extended
We had 8923530271 decisions of which only 1.5913e-06 were on extended
c Switched to VSIDS.
We had 9068865703 decisions of which only 1.5658e-06 were on extended
We had 9112855464 decisions of which only 1.55824e-06 were on extended
We had 9112935014 decisions of which only 1.55822e-06 were on extended
We had 9113206054 decisions of which only 1.55818e-06 were on extended
Window full
Deactivate
We had 9115152242 decisions of which only 1.55785e-06 were on extended
We had 9116306122 decisions of which only 1.55765e-06 were on extended
We had 9116360368 decisions of which only 1.55764e-06 were on extended
We had 9116666922 decisions of which only 1.55759e-06 were on extended
We had 9116704193 decisions of which only 1.55758e-06 were on extended
We had 9116756663 decisions of which only 1.55757e-06 were on extended
We had 9117662860 decisions of which only 1.55742e-06 were on extended
We had 9118513893 decisions of which only 1.55727e-06 were on extended
We had 9119539461 decisions of which only 1.5571e-06 were on extended
We had 9119755586 decisions of which only 1.55706e-06 were on extended
We had 9119920745 decisions of which only 1.77633e-06 were on extended
We had 9120204654 decisions of which only 1.87496e-06 were on extended
c Switched to LRB.
We had 9241231313 decisions of which only 1.86122e-06 were on extended
We had 9307182464 decisions of which only 1.84804e-06 were on extended
c Switched to VSIDS.
We had 9352914665 decisions of which only 1.839e-06 were on extended
We had 9445077398 decisions of which only 1.82105e-06 were on extended
We had 9495630165 decisions of which only 1.81136e-06 were on extended
We had 9497964963 decisions of which only 1.81091e-06 were on extended
We had 9498011746 decisions of which only 1.81091e-06 were on extended
We had 9499293314 decisions of which only 1.81066e-06 were on extended
We had 9501909886 decisions of which only 1.81016e-06 were on extended
We had 9503690630 decisions of which only 1.80982e-06 were on extended
c Switched to LRB.
We had 9583996355 decisions of which only 1.80509e-06 were on extended
We had 9584105519 decisions of which only 1.80507e-06 were on extended
We had 9584178620 decisions of which only 1.80506e-06 were on extended
We had 9584220269 decisions of which only 1.80505e-06 were on extended
We had 9586725954 decisions of which only 1.80458e-06 were on extended
We had 9594008154 decisions of which only 1.80321e-06 were on extended
We had 9594121898 decisions of which only 1.80319e-06 were on extended
We had 9594172946 decisions of which only 1.80318e-06 were on extended
We had 9594248287 decisions of which only 1.80316e-06 were on extended
We had 9621381826 decisions of which only 1.79808e-06 were on extended
We had 9623284575 decisions of which only 1.79772e-06 were on extended
We had 9623345943 decisions of which only 1.79771e-06 were on extended
We had 9623502068 decisions of which only 1.79768e-06 were on extended
We had 9623643313 decisions of which only 1.79766e-06 were on extended
We had 9623752105 decisions of which only 1.79764e-06 were on extended
We had 9623771798 decisions of which only 1.79763e-06 were on extended
We had 9623805633 decisions of which only 1.79763e-06 were on extended
We had 9623820049 decisions of which only 1.79762e-06 were on extended
We had 9623914318 decisions of which only 1.79761e-06 were on extended
We had 9623926104 decisions of which only 1.7976e-06 were on extended
We had 9623941879 decisions of which only 1.7976e-06 were on extended
We had 9623960854 decisions of which only 1.7976e-06 were on extended
We had 9624182821 decisions of which only 1.79756e-06 were on extended
We had 9667664728 decisions of which only 1.78947e-06 were on extended
We had 9667795222 decisions of which only 1.78945e-06 were on extended
We had 9667938972 decisions of which only 1.78942e-06 were on extended
We had 9668018633 decisions of which only 1.7894e-06 were on extended
We had 9668062560 decisions of which only 1.7894e-06 were on extended
We had 9668519585 decisions of which only 1.78931e-06 were on extended
We had 9668759593 decisions of which only 1.78927e-06 were on extended
We had 9668833870 decisions of which only 1.78925e-06 were on extended
We had 9669092453 decisions of which only 1.78921e-06 were on extended
We had 9669198346 decisions of which only 1.78919e-06 were on extended
We had 9669402212 decisions of which only 1.78915e-06 were on extended
We had 9669535364 decisions of which only 1.78912e-06 were on extended
We had 9669601280 decisions of which only 1.78911e-06 were on extended
We had 9681014804 decisions of which only 1.787e-06 were on extended
We had 9692445088 decisions of which only 1.7849e-06 were on extended
We had 9692510558 decisions of which only 1.78488e-06 were on extended
We had 9692559558 decisions of which only 1.78487e-06 were on extended
We had 9692614265 decisions of which only 1.78486e-06 were on extended
We had 9695535054 decisions of which only 1.78433e-06 were on extended
We had 9695565143 decisions of which only 1.78432e-06 were on extended
We had 9695578978 decisions of which only 1.78432e-06 were on extended
We had 9726499372 decisions of which only 1.77865e-06 were on extended
We had 9743451404 decisions of which only 1.77555e-06 were on extended
c Switched to VSIDS.
We had 9743768617 decisions of which only 1.77549e-06 were on extended
We had 9816174276 decisions of which only 1.7624e-06 were on extended
We had 9935607519 decisions of which only 1.74121e-06 were on extended
c ===============================================================================
restarts                  : 3687
conflicts                 : 1092247        (307 /sec)
decisions                 : 9937812192     (0.00 % random) (2794621 /sec)
propagations              : 13616621709    (3829143 /sec)
conflict literals         : 16823072       (14.47 % deleted)

conflicts w/ DIP found    : 227582         (20.84 % of conflicts)
conflicts w/ dangerous DIP: 0              (0.00 % of conflicts)
conflicts w/ DIP-learning : 1              (0.00 % of conflicts)
decisions on ext vars     : 173            (0.00 % of decisions)
total ext vars            : 1           
tried delete ext vars     : 0           
deleted ext vars          : 0           
max ext vars              : 1           

Memory used               : 6090.00 MB
CPU time                  : 3556.05 s
DIP computation time      : 3.86711 s (0.11 % of total time)
ER_sel time               : 1.19704 s
ER_add time               : 0 s
ER_delC time              : 0 s
ER_delV time              : 0 s
ER_sub time               : 0.738128 s
ER_stat time              : 0 s

INDETERMINATE
